p cnf 102 323
29 38 47 56 0 
-29 -38 0 
-29 -47 0 
-29 -56 0 
-38 -47 0 
-38 -56 0 
-47 -56 0 
-29 -83 82 0 
-29 -83 70 0 
-38 -84 82 0 
-38 -84 71 0 
-47 -85 82 0 
-47 -85 72 0 
-56 -86 82 0 
-56 -86 73 0 
-29 -25 -87 70 0 
-29 -25 -87 78 0 
-29 -25 -87 -78 0 
-29 -88 71 0 
-29 -88 79 0 
-29 -88 -78 0 
-29 -89 72 0 
-29 -89 80 0 
-29 -89 -78 0 
-29 -90 73 0 
-29 -90 81 0 
-29 -90 -78 0 
-38 -91 70 0 
-38 -91 78 0 
-38 -91 -79 0 
-38 -26 -92 71 0 
-38 -26 -92 79 0 
-38 -26 -92 -79 0 
-38 -93 72 0 
-38 -93 80 0 
-38 -93 -79 0 
-38 -94 73 0 
-38 -94 81 0 
-38 -94 -79 0 
-47 -95 70 0 
-47 -95 78 0 
-47 -95 -80 0 
-47 -96 71 0 
-47 -96 79 0 
-47 -96 -80 0 
-47 -27 -97 72 0 
-47 -27 -97 80 0 
-47 -27 -97 -80 0 
-47 -98 73 0 
-47 -98 81 0 
-47 -98 -80 0 
-56 -99 70 0 
-56 -99 78 0 
-56 -99 -81 0 
-56 -100 71 0 
-56 -100 79 0 
-56 -100 -81 0 
-56 -101 72 0 
-56 -101 80 0 
-56 -101 -81 0 
-56 -28 -102 73 0 
-56 -28 -102 81 0 
-56 -28 -102 -81 0 
-1 70 0 
-29 -83 2 0 
-2 29 0 
-2 83 0 
-29 -25 -87 3 0 
-3 29 0 
-3 25 0 
-3 87 0 
-38 -91 4 0 
-4 38 0 
-4 91 0 
-47 -95 5 0 
-5 47 0 
-5 95 0 
-56 -99 6 0 
-6 56 0 
-6 99 0 
2 3 4 5 6 1 -70 0 
-7 71 0 
-38 -84 8 0 
-8 38 0 
-8 84 0 
-29 -88 9 0 
-9 29 0 
-9 88 0 
-38 -26 -92 10 0 
-10 38 0 
-10 26 0 
-10 92 0 
-47 -96 11 0 
-11 47 0 
-11 96 0 
-56 -100 12 0 
-12 56 0 
-12 100 0 
8 9 10 11 12 7 -71 0 
-13 72 0 
-47 -85 14 0 
-14 47 0 
-14 85 0 
-29 -89 15 0 
-15 29 0 
-15 89 0 
-38 -93 16 0 
-16 38 0 
-16 93 0 
-47 -27 -97 17 0 
-17 47 0 
-17 27 0 
-17 97 0 
-56 -101 18 0 
-18 56 0 
-18 101 0 
14 15 16 17 18 13 -72 0 
-19 73 0 
-56 -86 20 0 
-20 56 0 
-20 86 0 
-29 -90 21 0 
-21 29 0 
-21 90 0 
-38 -94 22 0 
-22 38 0 
-22 94 0 
-47 -98 23 0 
-23 47 0 
-23 98 0 
-56 -28 -102 24 0 
-24 56 0 
-24 28 0 
-24 102 0 
20 21 22 23 24 19 -73 0 
-25 74 0 
25 -74 0 
-26 75 0 
26 -75 0 
-27 76 0 
27 -76 0 
-28 77 0 
28 -77 0 
-29 -25 -87 30 0 
-30 29 0 
-30 25 0 
-30 87 0 
-29 -88 31 0 
-31 29 0 
-31 88 0 
-29 -89 32 0 
-32 29 0 
-32 89 0 
-29 -90 33 0 
-33 29 0 
-33 90 0 
30 31 32 33 -29 78 0 
-29 -25 -87 34 0 
-34 29 0 
-34 25 0 
-34 87 0 
-38 -91 35 0 
-35 38 0 
-35 91 0 
-47 -95 36 0 
-36 47 0 
-36 95 0 
-56 -99 37 0 
-37 56 0 
-37 99 0 
34 35 36 37 29 -78 0 
-38 -91 39 0 
-39 38 0 
-39 91 0 
-38 -26 -92 40 0 
-40 38 0 
-40 26 0 
-40 92 0 
-38 -93 41 0 
-41 38 0 
-41 93 0 
-38 -94 42 0 
-42 38 0 
-42 94 0 
39 40 41 42 -38 79 0 
-29 -88 43 0 
-43 29 0 
-43 88 0 
-38 -26 -92 44 0 
-44 38 0 
-44 26 0 
-44 92 0 
-47 -96 45 0 
-45 47 0 
-45 96 0 
-56 -100 46 0 
-46 56 0 
-46 100 0 
43 44 45 46 38 -79 0 
-47 -95 48 0 
-48 47 0 
-48 95 0 
-47 -96 49 0 
-49 47 0 
-49 96 0 
-47 -27 -97 50 0 
-50 47 0 
-50 27 0 
-50 97 0 
-47 -98 51 0 
-51 47 0 
-51 98 0 
48 49 50 51 -47 80 0 
-29 -89 52 0 
-52 29 0 
-52 89 0 
-38 -93 53 0 
-53 38 0 
-53 93 0 
-47 -27 -97 54 0 
-54 47 0 
-54 27 0 
-54 97 0 
-56 -101 55 0 
-55 56 0 
-55 101 0 
52 53 54 55 47 -80 0 
-56 -99 57 0 
-57 56 0 
-57 99 0 
-56 -100 58 0 
-58 56 0 
-58 100 0 
-56 -101 59 0 
-59 56 0 
-59 101 0 
-56 -28 -102 60 0 
-60 56 0 
-60 28 0 
-60 102 0 
57 58 59 60 -56 81 0 
-29 -90 61 0 
-61 29 0 
-61 90 0 
-38 -94 62 0 
-62 38 0 
-62 94 0 
-47 -98 63 0 
-63 47 0 
-63 98 0 
-56 -28 -102 64 0 
-64 56 0 
-64 28 0 
-64 102 0 
61 62 63 64 56 -81 0 
-65 82 0 
-29 -83 66 0 
-66 29 0 
-66 83 0 
-38 -84 67 0 
-67 38 0 
-67 84 0 
-47 -85 68 0 
-68 47 0 
-68 85 0 
-56 -86 69 0 
-69 56 0 
-69 86 0 
66 67 68 69 65 -82 0 
-87 -88 0 
-87 -89 0 
-87 -90 0 
-87 -91 0 
-87 -95 0 
-87 -99 0 
-88 -91 0 
-88 -92 0 
-88 -93 0 
-88 -94 0 
-88 -95 0 
-88 -99 0 
-89 -91 0 
-89 -95 0 
-89 -96 0 
-89 -97 0 
-89 -98 0 
-89 -99 0 
-90 -91 0 
-90 -95 0 
-90 -99 0 
-90 -100 0 
-90 -101 0 
-90 -102 0 
-91 -92 0 
-91 -96 0 
-91 -100 0 
-92 -93 0 
-92 -94 0 
-92 -96 0 
-92 -100 0 
-93 -95 0 
-93 -96 0 
-93 -97 0 
-93 -98 0 
-93 -100 0 
-94 -96 0 
-94 -99 0 
-94 -100 0 
-94 -101 0 
-94 -102 0 
-95 -97 0 
-95 -101 0 
-96 -97 0 
-96 -101 0 
-97 -98 0 
-97 -101 0 
-98 -99 0 
-98 -100 0 
-98 -101 0 
-98 -102 0 
-99 -102 0 
-100 -102 0 
-101 -102 0 
